
Value of objective function: 5.00000000

Actual values of the variables:
x0                              1
x1                              0
x2                              0
x3                              1
x4                              0
x5                              0
x6                              1
x7                              1
x8                              0
x9                              1
x10                             0
e2_0_0                          3
e0_0_0                          9
y0                              9
y1                              0
e6_0_0                         10
e1_0_0                          4
y2                              4
y3                              0
e1_0_1                          4
y4                              4
y5                              0
e1_0_2                          4
y6                              4
y7                              0
e1_0_3                          4
y8                              4
y9                              0
e1_0_4                          4
y10                             4
y11                             0
e1_0_5                          4
y12                             4
y13                             0
e1_0_6                          4
y14                             4
y15                             0
e1_0_7                          4
y16                             4
y17                             0
y18                             3
y19                             0
e4_2_0                         32
y20                             0
y21                            32
e5_3_0                         19
e4_2_1                         32
y22                             0
y23                            32
e5_3_1                         19
e4_3_0                         19
y24                             0
y25                            19
e4_3_1                         19
y26                             0
y27                            19
y28                             0
y29                            19
y30                             0
y31                            19
e5_3_2                         19
y32                             0
y33                            19
e5_3_3                         19
y34                             0
y35                            19
y36                            10
y37                             0
e7_0_0                         11
y38                             0
y39                            11
e8_0_0                         19
e8_1_0                         28
e8_2_0                         28
e8_3_0                         15
y40                            19
y41                             0
e9_1_0                         23
y42                             0
y43                            28
y44                             0
y45                            28
y46                             0
y47                            15
y48                             0
y49                            23
e10_0_0                        33
e10_1_0                        33
e10_2_0                        20
y50                             0
y51                            33
y52                             0
y53                            33
y54                             0
y55                            20
e5_0_B_0_0                     23
y56                            23
y57                             0
e9_1_B_0_0                     27
e5_0_B_0_1                     23
y58                            23
y59                             0
e9_1_B_0_1                     27
e5_0_B_0_2                     23
y60                            23
y61                             0
e9_1_B_0_2                     27
e5_0_B_0_3                     23
y62                            23
y63                             0
e9_1_B_0_3                     27
y64                             0
y65                            27
e10_0_B_0_0                    33
y66                             0
y67                            27
e10_0_B_0_1                    33
y68                             0
y69                            27
e10_0_B_0_2                    33
y70                             0
y71                            27
e10_0_B_0_3                    33
y72                             0
y73                            33
e4_2_B_0_0                     32
y74                             0
y75                            33
e4_2_B_0_1                     32
y76                             0
y77                            33
e4_2_B_0_2                     32
y78                             0
y79                            33
e4_2_B_0_3                     32
y80                             0
y81                            32
y82                             0
y83                            32
y84                             0
y85                            32
y86                             0
y87                            32
e4_0_B_1_0                     23
y88                            23
y89                             0
e9_1_B_1_0                     27
e4_0_B_1_1                     23
y90                            23
y91                             0
e9_1_B_1_1                     27
y92                             0
y93                            27
e10_0_B_1_0                    33
y94                             0
y95                            27
e10_0_B_1_1                    33
y96                             0
y97                            33
y98                             0
y99                            33
e5_0_B_1_0                     23
y100                           23
y101                            0
e9_1_B_2_0                     27
e5_0_B_1_1                     23
y102                           23
y103                            0
e9_1_B_2_1                     27
e5_0_B_1_2                     23
y104                           23
y105                            0
e9_1_B_2_2                     27
e5_0_B_1_3                     23
y106                           23
y107                            0
e9_1_B_2_3                     27
y108                            0
y109                           27
e10_1_B_2_0                    33
y110                            0
y111                           27
e10_1_B_2_1                    33
y112                            0
y113                           27
e10_1_B_2_2                    33
y114                            0
y115                           27
e10_1_B_2_3                    33
y116                            0
y117                           33
y118                            0
y119                           33
y120                            0
y121                           33
y122                            0
y123                           33
e5_1_B_2_0                     32
y124                            0
y125                           32
e4_2_B_2_0                     32
e5_1_B_2_1                     32
y126                            0
y127                           32
e4_2_B_2_1                     32
e5_1_B_2_2                     32
y128                            0
y129                           32
e4_2_B_2_2                     32
e5_1_B_2_3                     32
y130                            0
y131                           32
e4_2_B_2_3                     32
y132                            0
y133                           32
y134                            0
y135                           32
y136                            0
y137                           32
y138                            0
y139                           32
e9_0_B_3_0                     47
y140                           47
y141                            0
e4_1_B_3_0                     32
y142                            0
y143                           32
e4_1_B_3_1                     32
y144                            0
y145                           32
e5_2_B_3_0                     32
y146                            0
y147                           32
e5_2_B_3_1                     32
y148                            0
y149                           32
e5_2_B_3_2                     32
y150                            0
y151                           32
e5_2_B_3_3                     32
y152                            0
y153                           32
